Welcome to the CBC MILP Solver 
Version: 2.10.12 
Build Date: Aug 20 2024 

command line - /opt/homebrew/bin/cbc computational_data/real_data/lp/wdbc_trial_007_margin.lp seconds 10.0 solve solu computational_data/real_data/solutions/wdbc_trial_007_margin.sol (default strategy 1)
 CoinLpIO::readLp(): Maximization problem reformulated as minimization
Coin0009I Switching back to maximization to get correct duals etc
seconds was changed from 1e+100 to 10
Continuous objective value is 109.852 - 0.00 seconds
Cgl0003I 1 fixed, 0 tightened bounds, 57 strengthened rows, 4 substitutions
Cgl0003I 0 fixed, 0 tightened bounds, 59 strengthened rows, 0 substitutions
Cgl0003I 0 fixed, 0 tightened bounds, 49 strengthened rows, 1 substitutions
Cgl0003I 0 fixed, 0 tightened bounds, 36 strengthened rows, 0 substitutions
Cgl0003I 0 fixed, 0 tightened bounds, 18 strengthened rows, 0 substitutions
Cgl0003I 0 fixed, 0 tightened bounds, 8 strengthened rows, 0 substitutions
Cgl0003I 0 fixed, 0 tightened bounds, 7 strengthened rows, 0 substitutions
Cgl0003I 0 fixed, 0 tightened bounds, 6 strengthened rows, 0 substitutions
Cgl0003I 0 fixed, 0 tightened bounds, 3 strengthened rows, 0 substitutions
Cgl0004I processed model has 57 rows, 37 columns (37 integer (37 of which binary)) and 623 elements
Cbc0038I Initial state - 21 integers unsatisfied sum - 3.61111
Cbc0038I Pass   1: suminf.    3.61111 (21) obj. 109.396 iterations 2
Cbc0038I Pass   2: suminf.    3.00000 (6) obj. 107.007 iterations 9
Cbc0038I Pass   3: suminf.    3.00000 (6) obj. 107.007 iterations 10
Cbc0038I Pass   4: suminf.    0.22222 (2) obj. 106.785 iterations 6
Cbc0038I Solution found of 105.007
Cbc0038I Before mini branch and bound, 13 integers at bound fixed and 0 continuous
Cbc0038I Full problem 57 rows 37 columns, reduced to 53 rows 24 columns
Cbc0038I Mini branch and bound improved solution from 105.007 to 106.007 (0.01 seconds)
Cbc0038I Round again with cutoff of 106.346
Cbc0038I Pass   5: suminf.    3.61111 (21) obj. 109.396 iterations 0
Cbc0038I Pass   6: suminf.    3.00000 (6) obj. 107.007 iterations 23
Cbc0038I Pass   7: suminf.    0.16667 (1) obj. 106.841 iterations 9
Cbc0038I Pass   8: suminf.    0.16667 (1) obj. 106.841 iterations 4
Cbc0038I Pass   9: suminf.    0.33889 (1) obj. 106.346 iterations 1
Cbc0038I Pass  10: suminf.    2.66111 (6) obj. 106.346 iterations 14
Cbc0038I Pass  11: suminf.    0.38889 (3) obj. 106.618 iterations 8
Cbc0038I Pass  12: suminf.    0.66110 (3) obj. 106.346 iterations 2
Cbc0038I Pass  13: suminf.    0.66110 (4) obj. 106.346 iterations 10
Cbc0038I Pass  14: suminf.    3.56111 (8) obj. 106.346 iterations 22
Cbc0038I Pass  15: suminf.    2.56111 (6) obj. 106.346 iterations 8
Cbc0038I Pass  16: suminf.    2.56111 (6) obj. 106.346 iterations 2
Cbc0038I Pass  17: suminf.    2.33889 (5) obj. 106.346 iterations 8
Cbc0038I Pass  18: suminf.    0.66110 (3) obj. 106.346 iterations 14
Cbc0038I Pass  19: suminf.    0.38889 (3) obj. 106.618 iterations 1
Cbc0038I Pass  20: suminf.    0.66110 (3) obj. 106.346 iterations 1
Cbc0038I Pass  21: suminf.    1.56112 (4) obj. 106.346 iterations 7
Cbc0038I Pass  22: suminf.    0.66110 (3) obj. 106.346 iterations 6
Cbc0038I Pass  23: suminf.    0.22222 (2) obj. 106.785 iterations 3
Cbc0038I Pass  24: suminf.    0.56112 (2) obj. 106.346 iterations 3
Cbc0038I Pass  25: suminf.    0.56112 (2) obj. 106.346 iterations 3
Cbc0038I Pass  26: suminf.    0.56112 (2) obj. 106.346 iterations 5
Cbc0038I Pass  27: suminf.    0.66110 (4) obj. 106.346 iterations 10
Cbc0038I Pass  28: suminf.    0.55556 (3) obj. 106.452 iterations 10
Cbc0038I Pass  29: suminf.    0.66110 (3) obj. 106.346 iterations 3
Cbc0038I Pass  30: suminf.    0.55556 (3) obj. 106.452 iterations 2
Cbc0038I Pass  31: suminf.    1.66110 (5) obj. 106.346 iterations 18
Cbc0038I Pass  32: suminf.    0.55556 (3) obj. 106.452 iterations 8
Cbc0038I Pass  33: suminf.    0.66110 (3) obj. 106.346 iterations 4
Cbc0038I Pass  34: suminf.    0.66111 (4) obj. 106.346 iterations 19
Cbc0038I Before mini branch and bound, 2 integers at bound fixed and 0 continuous
Cbc0038I Full problem 57 rows 37 columns, reduced to 56 rows 35 columns
Cbc0038I Mini branch and bound improved solution from 106.007 to 106.007 (0.01 seconds)
Cbc0038I Round again with cutoff of 106.956
Cbc0038I Pass  34: suminf.    3.61111 (21) obj. 109.396 iterations 0
Cbc0038I Pass  35: suminf.    3.00000 (6) obj. 107.007 iterations 23
Cbc0038I Pass  36: suminf.    0.28222 (2) obj. 106.956 iterations 8
Cbc0038I Pass  37: suminf.    0.28222 (2) obj. 106.956 iterations 8
Cbc0038I Pass  38: suminf.    0.17111 (2) obj. 106.956 iterations 2
Cbc0038I Pass  39: suminf.    4.05111 (10) obj. 106.956 iterations 12
Cbc0038I Pass  40: suminf.    0.72222 (4) obj. 107.285 iterations 5
Cbc0038I Pass  41: suminf.    0.72667 (4) obj. 106.956 iterations 2
Cbc0038I Pass  42: suminf.    0.72667 (4) obj. 106.956 iterations 2
Cbc0038I Pass  43: suminf.    1.05111 (4) obj. 106.956 iterations 2
Cbc0038I Pass  44: suminf.    0.72668 (4) obj. 106.956 iterations 7
Cbc0038I Pass  45: suminf.    0.72668 (4) obj. 106.956 iterations 4
Cbc0038I Pass  46: suminf.    1.05110 (4) obj. 106.956 iterations 4
Cbc0038I Pass  47: suminf.    0.72222 (4) obj. 107.285 iterations 3
Cbc0038I Pass  48: suminf.    0.72668 (4) obj. 106.956 iterations 2
Cbc0038I Pass  49: suminf.    3.17112 (8) obj. 106.956 iterations 21
Cbc0038I Pass  50: suminf.    0.61557 (4) obj. 106.956 iterations 9
Cbc0038I Pass  51: suminf.    0.39335 (3) obj. 106.956 iterations 4
Cbc0038I Pass  52: suminf.    0.39335 (3) obj. 106.956 iterations 2
Cbc0038I Pass  53: suminf.    0.83779 (3) obj. 106.956 iterations 2
Cbc0038I Pass  54: suminf.    0.83779 (3) obj. 106.956 iterations 0
Cbc0038I Pass  55: suminf.    0.39335 (3) obj. 106.956 iterations 5
Cbc0038I Pass  56: suminf.    1.05110 (4) obj. 106.956 iterations 6
Cbc0038I Pass  57: suminf.    0.66667 (4) obj. 107.341 iterations 5
Cbc0038I Pass  58: suminf.    1.05110 (4) obj. 106.956 iterations 3
Cbc0038I Pass  59: suminf.    3.83778 (9) obj. 106.956 iterations 5
Cbc0038I Pass  60: suminf.    1.05110 (4) obj. 106.956 iterations 7
Cbc0038I Pass  61: suminf.    3.83778 (9) obj. 106.956 iterations 13
Cbc0038I Pass  62: suminf.    1.05110 (5) obj. 106.956 iterations 16
Cbc0038I Pass  63: suminf.    1.05110 (5) obj. 106.956 iterations 10
Cbc0038I No solution found this major pass
Cbc0038I Before mini branch and bound, 5 integers at bound fixed and 0 continuous
Cbc0038I Full problem 57 rows 37 columns, reduced to 56 rows 32 columns
Cbc0038I Mini branch and bound did not improve solution (0.02 seconds)
Cbc0038I After 0.02 seconds - Feasibility pump exiting with objective of 106.007 - took 0.01 seconds
Cbc0012I Integer solution of 106.00731 found by feasibility pump after 0 iterations and 0 nodes (0.02 seconds)
Cbc0038I Full problem 57 rows 37 columns, reduced to 54 rows 24 columns
Cbc0031I 8 added rows had average density of 26.75
Cbc0013I At root node, 8 cuts changed objective from 109.39614 to 106.1346 in 100 passes
Cbc0014I Cut generator 0 (Probing) - 18 row cuts average 22.7 elements, 0 column cuts (0 active)  in 0.007 seconds - new frequency is -100
Cbc0014I Cut generator 1 (Gomory) - 858 row cuts average 27.7 elements, 0 column cuts (0 active)  in 0.006 seconds - new frequency is 1
Cbc0014I Cut generator 2 (Knapsack) - 46 row cuts average 14.8 elements, 0 column cuts (0 active)  in 0.011 seconds - new frequency is 1
Cbc0014I Cut generator 3 (Clique) - 0 row cuts average 0.0 elements, 0 column cuts (0 active)  in 0.001 seconds - new frequency is -100
Cbc0014I Cut generator 4 (MixedIntegerRounding2) - 216 row cuts average 26.8 elements, 0 column cuts (0 active)  in 0.007 seconds - new frequency is 1
Cbc0014I Cut generator 5 (FlowCover) - 0 row cuts average 0.0 elements, 0 column cuts (0 active)  in 0.000 seconds - new frequency is -100
Cbc0014I Cut generator 6 (TwoMirCuts) - 86 row cuts average 23.8 elements, 0 column cuts (0 active)  in 0.003 seconds - new frequency is 1
Cbc0010I After 0 nodes, 1 on tree, 106.00731 best solution, best possible 106.13281 (0.08 seconds)
Cbc0001I Search completed - best objective 106.007311, took 2081 iterations and 2 nodes (0.08 seconds)
Cbc0032I Strong branching done 46 times (464 iterations), fathomed 1 nodes and fixed 1 variables
Cbc0035I Maximum depth 0, 11 variables fixed on reduced cost
Cuts at root node changed objective from 109.396 to 106.133
Probing was tried 100 times and created 18 cuts of which 0 were active after adding rounds of cuts (0.007 seconds)
Gomory was tried 106 times and created 884 cuts of which 0 were active after adding rounds of cuts (0.006 seconds)
Knapsack was tried 106 times and created 56 cuts of which 0 were active after adding rounds of cuts (0.011 seconds)
Clique was tried 100 times and created 0 cuts of which 0 were active after adding rounds of cuts (0.001 seconds)
MixedIntegerRounding2 was tried 106 times and created 238 cuts of which 0 were active after adding rounds of cuts (0.007 seconds)
FlowCover was tried 100 times and created 0 cuts of which 0 were active after adding rounds of cuts (0.000 seconds)
TwoMirCuts was tried 106 times and created 136 cuts of which 0 were active after adding rounds of cuts (0.003 seconds)
ZeroHalf was tried 1 times and created 0 cuts of which 0 were active after adding rounds of cuts (0.000 seconds)

Result - Optimal solution found

Objective value:                106.00731100
Enumerated nodes:               2
Total iterations:               2081
Time (CPU seconds):             0.09
Time (Wallclock seconds):       0.09

Total time (CPU seconds):       0.09   (Wallclock seconds):       0.09

